Route #1: 67 34 46 8 52 27 45 29 48 74 30
Route #2: 5 47 36 69 71 60 70 20 37 15 57 13 54 19 35 7
Route #3: 53 14 59 66 11 65 38 10
Route #4: 3 44 32 50 18 55 25 31 9 39 72 58
Route #5: 24 49 23 56 41 64 42 43 1 22 61 21
Route #6: 6 51 16 63 33 73 62 28 2 68 4
Route #7: 75 17 40 12 26
Cost 737